benchmark_instances/dzn_benchmark_instances/benchmark_instance_9-4.dzn
% Input: sequence of points
seq_points = [|2,1
              |6,1
              |7,1
              |2,3
              |3,3
              |1,4
              |3,4
              |1,6
              |3,7
              |4,7
              |5,8
              |6,8
              |6,0
              |7,0
              |9,0
              |3,9
              |4,9
              |5,9
              |6,9
              |9,9
              |0,6
              |0,9
              |0,0
              |0,1
             |];

num_points = 24;
