benchmark_instances/lp_benchmark_instances/benchmark_instance_9-4.lp
% Input: sequence of points
point(2,1).
point(6,1).
point(7,1).
point(2,3).
point(3,3).
point(1,4).
point(3,4).
point(1,6).
point(3,7).
point(4,7).
point(5,8).
point(6,8).
point(6,0).
point(7,0).
point(9,0).
point(3,9).
point(4,9).
point(5,9).
point(6,9).
point(9,9).
point(0,6).
point(0,9).
point(0,0).
point(0,1).
